(set-info :smt-lib-version 2.6)
(set-logic QF_BV)
(set-info :source |
 Patrice Godefroid, SAGE (systematic dynamic test generation)
 For more information: http://research.microsoft.com/en-us/um/people/pg/public_psfiles/ndss2008.pdf
|)
(set-info :category "industrial")
(set-info :status unsat)
(declare-fun T1_1400 () (_ BitVec 8))
(declare-fun T1_1144 () (_ BitVec 8))
(declare-fun T1_888 () (_ BitVec 8))
(declare-fun T1_632 () (_ BitVec 8))
(declare-fun T1_376 () (_ BitVec 8))
(declare-fun T1_120 () (_ BitVec 8))
(declare-fun T1_1656 () (_ BitVec 8))
(declare-fun T1_1912 () (_ BitVec 8))
(declare-fun T1_2168 () (_ BitVec 8))
(declare-fun T1_2424 () (_ BitVec 8))
(declare-fun T1_2680 () (_ BitVec 8))
(declare-fun T1_2936 () (_ BitVec 8))
(assert (let ((?v_1 ((_ zero_extend 24) T1_1400)) (?v_20 ((_ zero_extend 24) T1_1144)) (?v_16 ((_ zero_extend 24) T1_888)) (?v_12 ((_ zero_extend 24) T1_632)) (?v_8 ((_ zero_extend 24) T1_376)) (?v_5 ((_ zero_extend 24) T1_120))) (let ((?v_10 (bvadd ?v_5 (_ bv122 32)))) (let ((?v_9 (bvadd ?v_10 ?v_8))) (let ((?v_14 (bvadd ?v_9 (_ bv1 32)))) (let ((?v_13 (bvadd ?v_14 ?v_12))) (let ((?v_18 (bvadd ?v_13 (_ bv1 32)))) (let ((?v_17 (bvadd ?v_18 ?v_16))) (let ((?v_22 (bvadd ?v_17 (_ bv1 32)))) (let ((?v_21 (bvadd ?v_22 ?v_20))) (let ((?v_0 (bvadd ?v_21 (_ bv1 32)))) (let ((?v_23 (bvadd ?v_0 ?v_1))) (let ((?v_19 (bvadd (bvadd ?v_23 (_ bv1 32)) ((_ zero_extend 24) T1_1656)))) (let ((?v_15 (bvadd (bvadd ?v_19 (_ bv1 32)) ((_ zero_extend 24) T1_1912)))) (let ((?v_11 (bvadd (bvadd ?v_15 (_ bv1 32)) ((_ zero_extend 24) T1_2168)))) (let ((?v_7 (bvadd (bvadd ?v_11 (_ bv1 32)) ((_ zero_extend 24) T1_2424))) (?v_6 (bvadd ?v_5 (_ bv121 32)))) (let ((?v_4 (bvadd (bvadd ?v_7 (_ bv1 32)) ((_ zero_extend 24) T1_2680)))) (let ((?v_3 (bvadd (bvadd ?v_4 (_ bv1 32)) ((_ zero_extend 24) T1_2936)))) (let ((?v_2 (bvsub (_ bv2957 32) (bvadd ?v_3 (_ bv1 32))))) (and true (bvule (bvsub (_ bv2957 32) ?v_0) ?v_1) (= ?v_2 (_ bv1 32)) (bvule ?v_2 (_ bv1 32)) (bvult (_ bv1 32) (bvsub (_ bv2957 32) ?v_3)) (not (= T1_2936 (_ bv0 8))) (bvule ?v_3 (_ bv2957 32)) (bvule (_ bv0 32) ?v_3) (bvult (_ bv1 32) (bvsub (_ bv2957 32) ?v_4)) (bvult (_ bv1 32) (bvsub (_ bv2957 32) ?v_6)) (not (= T1_2680 (_ bv0 8))) (bvule ?v_4 (_ bv2957 32)) (bvule (_ bv0 32) ?v_4) (bvsle (bvsub ?v_5 (_ bv255 32)) (_ bv0 32)) (bvslt (_ bv0 32) (bvsub ?v_5 (_ bv254 32))) (bvule ?v_6 (_ bv2957 32)) (bvule (_ bv0 32) ?v_6) (bvult (_ bv1 32) (bvsub (_ bv2957 32) ?v_7)) (bvsle (bvsub ?v_8 (_ bv255 32)) (_ bv0 32)) (bvslt (_ bv0 32) (bvsub ?v_8 (_ bv254 32))) (bvslt (_ bv0 32) ?v_5) (not (= ?v_5 (_ bv0 32))) (bvult ?v_5 (_ bv2836 32)) (bvsle (_ bv0 32) ?v_5) (bvult (_ bv0 8) T1_120) (not (= T1_120 (_ bv0 8))) (not (= T1_2424 (_ bv0 8))) (bvule ?v_7 (_ bv2957 32)) (bvule (_ bv0 32) ?v_7) (bvult (_ bv1 32) (bvsub (_ bv2957 32) ?v_9)) (bvslt (_ bv0 32) ?v_8) (not (= ?v_8 (_ bv0 32))) (bvult ?v_8 (bvsub (_ bv2957 32) ?v_10)) (bvsle (_ bv0 32) ?v_8) (bvult (_ bv0 8) T1_376) (not (= T1_376 (_ bv0 8))) (bvult (_ bv1 32) (bvsub (_ bv2957 32) ?v_11)) (bvsle (bvsub ?v_12 (_ bv255 32)) (_ bv0 32)) (bvslt (_ bv0 32) (bvsub ?v_12 (_ bv254 32))) (bvule ?v_9 (_ bv2957 32)) (bvule (_ bv0 32) ?v_9) (not (= T1_2168 (_ bv0 8))) (bvule ?v_11 (_ bv2957 32)) (bvule (_ bv0 32) ?v_11) (bvult (_ bv1 32) (bvsub (_ bv2957 32) ?v_13)) (bvslt (_ bv0 32) ?v_12) (not (= ?v_12 (_ bv0 32))) (bvult ?v_12 (bvsub (_ bv2957 32) ?v_14)) (bvsle (_ bv0 32) ?v_12) (bvult (_ bv0 8) T1_632) (not (= T1_632 (_ bv0 8))) (bvult (_ bv1 32) (bvsub (_ bv2957 32) ?v_15)) (bvsle (bvsub ?v_16 (_ bv255 32)) (_ bv0 32)) (bvslt (_ bv0 32) (bvsub ?v_16 (_ bv254 32))) (bvule ?v_13 (_ bv2957 32)) (bvule (_ bv0 32) ?v_13) (not (= T1_1912 (_ bv0 8))) (bvule ?v_15 (_ bv2957 32)) (bvule (_ bv0 32) ?v_15) (bvult (_ bv1 32) (bvsub (_ bv2957 32) ?v_17)) (bvslt (_ bv0 32) ?v_16) (not (= ?v_16 (_ bv0 32))) (bvult ?v_16 (bvsub (_ bv2957 32) ?v_18)) (bvsle (_ bv0 32) ?v_16) (bvult (_ bv0 8) T1_888) (not (= T1_888 (_ bv0 8))) (bvult (_ bv1 32) (bvsub (_ bv2957 32) ?v_19)) (bvsle (bvsub ?v_20 (_ bv255 32)) (_ bv0 32)) (bvslt (_ bv0 32) (bvsub ?v_20 (_ bv254 32))) (bvule ?v_17 (_ bv2957 32)) (bvule (_ bv0 32) ?v_17) (not (= T1_1656 (_ bv0 8))) (bvule ?v_19 (_ bv2957 32)) (bvule (_ bv0 32) ?v_19) (bvult (_ bv1 32) (bvsub (_ bv2957 32) ?v_21)) (bvslt (_ bv0 32) ?v_20) (not (= ?v_20 (_ bv0 32))) (bvult ?v_20 (bvsub (_ bv2957 32) ?v_22)) (bvsle (_ bv0 32) ?v_20) (bvult (_ bv0 8) T1_1144) (not (= T1_1144 (_ bv0 8))) (bvult (_ bv1 32) (bvsub (_ bv2957 32) ?v_23)) (bvule ?v_21 (_ bv2957 32)) (bvule (_ bv0 32) ?v_21) (bvule ?v_23 (_ bv2957 32)) (bvule (_ bv0 32) ?v_23) (bvsle (_ bv0 32) ?v_1) (bvult (_ bv0 8) T1_1400) (not (= T1_1400 (_ bv0 8)))))))))))))))))))))))
(check-sat)
(exit)
